sat
(
  (define-fun C3_VM8 () Int
    0)
  (define-fun C4_VM9 () Int
    0)
  (define-fun C5_VM1 () Int
    0)
  (define-fun C5_VM11 () Int
    0)
  (define-fun ProcProv3 () Int
    2)
  (define-fun VM4Type () Int
    26)
  (define-fun ProcProv9 () Int
    2)
  (define-fun PriceProv4 () Int
    252)
  (define-fun C1_VM10 () Int
    1)
  (define-fun C3_VM5 () Int
    0)
  (define-fun C4_VM5 () Int
    0)
  (define-fun C2_VM7 () Int
    0)
  (define-fun StorageProv2 () Int
    2000)
  (define-fun C2_VM6 () Int
    1)
  (define-fun C2_VM8 () Int
    0)
  (define-fun ProcProv12 () Int
    2)
  (define-fun C4_VM7 () Int
    0)
  (define-fun PriceProv11 () Int
    128)
  (define-fun C3_VM2 () Int
    0)
  (define-fun StorageProv1 () Int
    2000)
  (define-fun C2_VM9 () Int
    0)
  (define-fun C2_VM2 () Int
    1)
  (define-fun VM2Type () Int
    37)
  (define-fun PriceProv5 () Int
    252)
  (define-fun StorageProv11 () Int
    2000)
  (define-fun MemProv4 () Int
    7500)
  (define-fun C5_VM2 () Int
    0)
  (define-fun StorageProv4 () Int
    2000)
  (define-fun MemProv11 () Int
    3750)
  (define-fun C5_VM5 () Int
    1)
  (define-fun VM9Type () Int
    37)
  (define-fun C2_VM4 () Int
    0)
  (define-fun MemProv8 () Int
    3750)
  (define-fun MemProv2 () Int
    3750)
  (define-fun C1_VM9 () Int
    1)
  (define-fun VM5Type () Int
    27)
  (define-fun VM1Type () Int
    37)
  (define-fun StorageProv10 () Int
    2000)
  (define-fun VM6Type () Int
    37)
  (define-fun C3_VM6 () Int
    0)
  (define-fun C4_VM1 () Int
    0)
  (define-fun StorageProv6 () Int
    2000)
  (define-fun ProcProv6 () Int
    2)
  (define-fun StorageProv9 () Int
    2000)
  (define-fun C4_VM6 () Int
    0)
  (define-fun VM3Type () Int
    37)
  (define-fun ProcProv2 () Int
    2)
  (define-fun PriceProv10 () Int
    128)
  (define-fun C4_VM10 () Int
    0)
  (define-fun ProcProv11 () Int
    2)
  (define-fun MemProv7 () Int
    7500)
  (define-fun ProcProv5 () Int
    4)
  (define-fun C1_VM5 () Int
    0)
  (define-fun C5_VM8 () Int
    0)
  (define-fun C2_VM3 () Int
    1)
  (define-fun C4_VM8 () Int
    0)
  (define-fun C5_VM4 () Int
    1)
  (define-fun C2_VM5 () Int
    0)
  (define-fun C2_VM12 () Int
    0)
  (define-fun C3_VM10 () Int
    0)
  (define-fun ProcProv1 () Int
    2)
  (define-fun PriceProv8 () Int
    128)
  (define-fun PriceProv6 () Int
    128)
  (define-fun MemProv9 () Int
    3750)
  (define-fun StorageProv8 () Int
    2000)
  (define-fun PriceProv2 () Int
    128)
  (define-fun C4_VM12 () Int
    0)
  (define-fun VM8Type () Int
    37)
  (define-fun C1_VM1 () Int
    0)
  (define-fun C4_VM4 () Int
    0)
  (define-fun C5_VM7 () Int
    0)
  (define-fun PriceProv1 () Int
    128)
  (define-fun StorageProv5 () Int
    2000)
  (define-fun C5_VM3 () Int
    0)
  (define-fun PriceProv7 () Int
    252)
  (define-fun C3_VM11 () Int
    0)
  (define-fun C1_VM11 () Int
    1)
  (define-fun C1_VM3 () Int
    0)
  (define-fun C3_VM4 () Int
    0)
  (define-fun ProcProv10 () Int
    2)
  (define-fun ProcProv8 () Int
    2)
  (define-fun VM7Type () Int
    26)
  (define-fun C1_VM8 () Int
    1)
  (define-fun StorageProv7 () Int
    2000)
  (define-fun ProcProv4 () Int
    4)
  (define-fun C5_VM9 () Int
    0)
  (define-fun C4_VM11 () Int
    0)
  (define-fun C3_VM12 () Int
    0)
  (define-fun C2_VM11 () Int
    0)
  (define-fun C1_VM4 () Int
    0)
  (define-fun C1_VM2 () Int
    0)
  (define-fun C1_VM7 () Int
    0)
  (define-fun C5_VM10 () Int
    0)
  (define-fun MemProv3 () Int
    3750)
  (define-fun C3_VM9 () Int
    0)
  (define-fun C3_VM3 () Int
    0)
  (define-fun C3_VM7 () Int
    1)
  (define-fun StorageProv12 () Int
    2000)
  (define-fun VM12Type () Int
    37)
  (define-fun C2_VM1 () Int
    1)
  (define-fun C4_VM2 () Int
    0)
  (define-fun C1_VM6 () Int
    0)
  (define-fun MemProv6 () Int
    3750)
  (define-fun C3_VM1 () Int
    0)
  (define-fun PriceProv12 () Int
    128)
  (define-fun C1_VM12 () Int
    1)
  (define-fun C4_VM3 () Int
    0)
  (define-fun C5_VM12 () Int
    0)
  (define-fun MemProv1 () Int
    3750)
  (define-fun VM11Type () Int
    37)
  (define-fun VM10Type () Int
    37)
  (define-fun PriceProv3 () Int
    128)
  (define-fun PriceProv9 () Int
    128)
  (define-fun ProcProv7 () Int
    4)
  (define-fun C5_VM6 () Int
    0)
  (define-fun MemProv5 () Int
    7500)
  (define-fun MemProv10 () Int
    3750)
  (define-fun MemProv12 () Int
    3750)
  (define-fun C2_VM10 () Int
    0)
  (define-fun StorageProv3 () Int
    2000)
)
(objectives
 ( 27)
 ((+ 0
   PriceProv1
   PriceProv2
   PriceProv3
   PriceProv4
   PriceProv5
   PriceProv6
   PriceProv7
   PriceProv8
   PriceProv9
   PriceProv10
   PriceProv11
   PriceProv12) 1908)
)
(:added-eqs                   726031
 :arith-eq-adapter            106897
 :arith-bound-propagations-lp 1116
 :arith-conflicts             44
 :arith-diseq                 517982
 :arith-fixed-eqs             18536
 :arith-lower                 413732
 :arith-make-feasible         79717
 :arith-max-columns           220
 :arith-max-rows              38
 :arith-upper                 710995
 :binary-propagations         2496401
 :conflicts                   8237
 :decisions                   197789
 :del-clause                  77377
 :final-checks                64
 :max-memory                  53.02
 :maxsat-cores                12
 :memory                      52.82
 :minimized-lits              54760
 :mk-bool-var                 199677
 :mk-clause                   81894
 :mk-clause-binary            9016
 :num-allocs                  829865532
 :num-checks                  113
 :pb-conflicts                4335
 :pb-predicates               919
 :pb-propagations             32251
 :pb-resolves                 2980
 :propagations                3439982
 :restarts                    59
 :rlimit-count                22857204
 :time                        1.29
 :total-time                  1.30)
